s td 66 71 166
b 1 11 58 70 75 97 164
b 2 11 23 58 65 97 162 164
b 3 11 58 65 75 97 162 164
b 4 11 23 58 65 162 165
b 5 1 2 3 4 9 10 14 16 17 18 21 26 27 32 35 36 40 45 46 48 49 54 60 62 63 67 68 69 71 72 74 76 78 79 80 81 86 88 89 90 91 93 94 95 96 99 100 106 107 108 109 110 111 115 119 120 125 126 132 134 136 137 140 141 142 150 151 153 154 156 158
b 6 1 2 4 9 14 16 17 18 21 26 27 32 35 36 40 43 45 46 48 49 54 62 63 67 68 69 71 72 74 76 79 80 81 86 88 89 90 91 93 94 95 96 98 99 100 106 107 108 109 110 111 115 119 120 125 126 132 134 136 137 140 141 142 150 151 153 154 156 158
b 7 1 2 4 9 14 16 17 18 21 24 26 27 32 35 36 40 43 45 46 48 49 54 62 63 67 68 69 71 72 74 76 79 80 81 86 88 89 90 91 93 94 95 96 98 99 100 106 107 108 109 110 111 115 120 125 126 132 134 136 137 140 141 142 150 151 153 154 156 158
b 8 1 2 4 9 14 16 17 18 21 24 26 28 32 35 36 40 43 45 46 48 49 54 55 62 63 67 68 69 71 72 74 76 79 80 81 86 88 89 90 91 93 94 95 96 98 99 100 106 107 108 109 110 111 115 120 125 126 132 134 136 137 140 141 142 148 150 151 153 154 156 158
b 9 1 2 5 9 14 16 17 18 21 22 24 26 28 32 35 36 40 42 43 45 46 48 49 54 55 62 63 67 68 71 72 74 76 79 80 81 86 88 89 90 91 93 94 95 96 98 99 106 107 108 110 111 115 120 125 126 132 134 136 137 140 141 142 143 148 150 151 153 154 156 158
b 10 1 2 5 9 14 16 17 18 21 22 24 28 32 35 36 40 42 43 45 46 48 49 54 55 62 63 67 68 71 72 74 76 79 80 81 86 88 89 90 91 92 93 95 96 98 99 106 107 108 110 115 120 125 132 134 136 137 140 141 142 143 148 150 151 153 154 156
b 11 1 2 5 9 14 16 17 18 21 22 24 28 32 35 36 40 42 43 45 46 48 49 54 55 62 63 67 68 71 72 74 76 79 80 81 86 87 88 89 90 91 92 93 95 96 98 99 106 107 108 110 115 120 121 122 125 132 134 137 140 141 142 143 148 150 151 153 154 156
b 12 1 2 5 9 14 16 17 18 21 22 24 28 32 35 36 40 42 43 45 46 48 49 54 55 61 62 63 67 68 71 72 74 76 79 80 81 86 87 88 89 90 91 92 93 95 96 98 99 106 107 108 110 115 120 121 122 125 132 134 137 140 141 143 148 150 151 153 154 156
b 13 1 2 5 9 14 16 17 18 21 22 24 28 32 35 36 40 42 43 45 46 48 49 54 55 61 62 63 67 68 71 72 74 76 79 80 81 86 87 89 90 91 92 93 95 96 98 99 106 107 108 110 115 120 121 122 125 132 134 137 140 141 143 148 150 151 153 154 156 166
b 14 1 2 5 9 14 16 17 18 21 22 24 28 32 35 36 40 42 43 45 46 48 49 54 55 61 63 67 68 71 72 74 79 80 81 86 87 89 90 91 92 93 95 96 98 99 106 107 108 110 115 120 121 122 125 132 134 137 141 143 148 150 151 153 154 156 163 166
b 15 1 2 5 9 14 16 17 18 21 22 24 28 32 35 36 40 42 43 45 46 48 49 54 55 61 63 67 68 71 72 74 79 80 81 86 87 89 90 91 92 93 95 98 99 106 107 108 110 115 120 121 122 125 132 134 137 138 141 143 148 150 151 153 154 156 163 166
b 16 1 2 5 9 14 16 17 18 21 22 24 28 32 35 36 42 43 45 46 48 49 54 55 61 63 67 68 71 72 74 79 80 81 86 87 89 90 91 92 93 95 98 99 102 106 107 108 110 115 120 121 122 125 132 134 137 138 141 143 148 150 151 153 154 156 163 166
b 17 1 2 5 9 14 16 17 18 22 24 28 32 35 36 42 43 45 46 48 49 53 54 55 61 63 67 68 71 72 74 79 80 81 86 87 89 90 91 92 93 95 98 99 102 104 106 107 108 110 115 120 121 122 125 132 134 137 138 141 143 148 150 151 153 154 156 163 166
b 18 1 2 5 9 12 14 16 17 18 22 24 28 32 35 36 42 43 45 46 48 49 53 54 55 61 63 67 68 71 72 74 79 80 81 86 87 89 90 91 92 93 98 99 102 104 106 107 108 110 115 120 121 122 125 132 134 137 138 141 143 148 150 151 153 154 156 159 163 166
b 19 1 2 5 9 12 14 16 17 18 22 24 28 32 35 36 42 43 45 46 48 49 53 54 55 57 61 67 68 72 74 79 80 81 86 87 89 90 91 92 93 98 99 102 104 106 107 108 110 113 115 120 121 122 125 132 134 137 138 141 143 148 150 151 153 154 156 159 163 166
b 20 1 2 5 9 12 14 16 17 18 22 24 28 32 35 36 42 43 45 46 48 49 53 54 55 57 61 67 68 72 74 79 80 81 86 87 89 90 91 92 93 98 99 101 102 104 106 107 108 110 113 115 120 121 122 125 132 134 137 138 141 143 148 150 151 153 154 159 163 166
b 21 2 5 9 12 14 16 17 18 22 24 28 32 35 36 42 43 45 46 48 49 53 54 55 56 57 61 67 68 72 74 79 80 81 86 87 89 90 91 92 93 98 99 101 102 104 107 108 110 113 115 118 120 121 122 125 132 134 137 138 141 143 148 150 151 153 154 159 163 166
b 22 2 5 9 12 14 16 17 18 22 24 28 32 35 36 39 42 45 46 48 49 53 54 55 56 57 61 67 68 72 74 79 80 81 86 87 89 90 91 92 93 98 99 101 102 104 107 108 110 113 115 118 120 121 122 125 132 134 137 138 141 143 148 150 151 153 154 159 163 166
b 23 2 5 12 14 16 17 18 22 24 28 32 36 39 42 46 48 49 53 54 55 56 57 61 67 68 72 74 79 80 81 85 87 89 90 91 92 93 98 101 102 104 107 108 113 115 118 120 121 122 125 132 137 138 141 143 145 148 150 151 153 154 159 163 166
b 24 2 5 12 14 16 17 18 22 24 28 32 36 39 42 46 48 49 53 54 55 56 57 61 67 68 72 74 79 80 81 85 87 89 90 91 92 93 98 101 104 107 108 113 115 118 120 121 122 123 125 132 137 138 141 143 145 148 150 151 153 154 159 163 166
b 25 2 5 12 14 16 17 18 22 24 28 32 36 39 42 46 48 49 53 54 55 56 57 61 67 68 72 74 79 80 81 85 87 89 90 92 93 98 101 104 107 108 113 118 120 121 122 123 125 132 138 141 143 145 148 150 151 153 159 163 165 166
b 26 2 5 12 14 16 17 18 22 24 28 32 36 39 42 46 48 49 53 54 55 56 57 61 67 68 72 74 79 80 81 85 87 89 90 92 93 98 101 104 107 113 118 120 121 122 123 125 132 138 141 143 145 146 148 150 151 153 159 163 165 166
b 27 2 5 12 14 16 17 18 22 24 28 32 36 39 42 46 48 49 53 54 55 56 57 61 67 68 72 74 79 80 81 85 87 89 90 92 93 98 101 104 113 118 120 121 122 123 125 132 135 138 141 143 144 145 146 148 150 151 153 159 163 165 166
b 28 2 5 12 13 14 17 18 22 24 28 31 32 36 39 42 46 48 49 53 54 55 56 57 61 67 68 72 74 79 80 81 85 87 89 90 92 93 98 101 104 113 118 120 121 122 123 125 132 135 138 141 143 144 145 146 148 150 151 153 159 163 165 166
b 29 2 5 12 13 14 17 18 22 24 31 32 36 39 42 46 48 49 51 53 54 55 56 57 61 67 68 72 74 79 80 81 85 87 89 90 92 93 98 101 104 113 118 120 121 122 123 125 132 135 138 141 143 144 145 146 148 150 151 153 159 163 165 166
b 30 2 5 12 13 14 17 18 19 22 24 31 32 36 39 42 46 48 49 51 53 54 55 56 57 61 67 68 72 74 79 80 81 85 87 89 92 93 98 101 104 113 118 120 121 122 123 124 125 132 135 138 141 143 144 145 146 150 151 153 159 163 165 166
b 31 2 5 12 13 14 17 19 22 24 31 32 36 39 42 46 48 49 51 53 54 55 56 57 61 68 72 74 79 80 81 85 87 89 92 93 98 101 104 113 118 120 121 122 123 124 125 129 132 135 138 141 143 144 145 146 150 151 153 159 163 165 166
b 32 2 5 12 13 14 17 19 22 24 31 32 39 42 46 48 49 51 53 54 55 56 57 61 68 72 74 79 80 81 85 87 89 92 93 98 101 104 113 118 120 121 122 123 124 125 129 132 135 138 141 143 144 145 146 150 151 153 159 160 163 165 166
b 33 5 12 13 14 17 19 22 24 29 31 32 39 42 49 51 53 54 55 56 57 68 74 79 85 87 98 101 104 113 114 118 120 121 122 123 124 129 135 138 143 144 145 146 150 151 159 160 163 165
b 34 5 12 13 14 17 19 22 24 29 31 32 39 42 49 51 53 54 55 57 68 74 79 85 87 98 101 104 113 114 116 118 120 121 122 123 124 129 135 138 143 144 145 146 150 151 159 160 163 165
b 35 5 12 13 14 17 19 22 24 29 31 32 42 47 49 51 53 54 55 57 68 74 79 85 87 98 101 104 113 114 116 120 121 122 123 124 129 135 138 143 144 145 146 150 151 159 160 163 165
b 36 5 12 13 14 17 19 22 24 29 31 32 42 47 49 50 51 53 54 55 57 68 79 85 87 98 101 104 113 114 116 120 121 122 123 124 129 135 143 144 145 146 150 151 159 160 163 165
b 37 5 11 13 19 22 23 31 32 42 47 49 50 51 54 79 120 124 129 135 143 144 146 150 151 160 162 165
b 38 5 11 13 19 22 23 31 32 42 47 49 50 51 54 65 120 124 129 143 144 146 150 151 160 162 165
b 39 2 12 13 14 17 19 24 25 31 32 46 48 51 53 54 55 57 61 68 72 79 80 81 87 89 92 93 101 112 120 121 122 125 129 132 141 144 146 149 150 151 153 160 163 166
b 40 12 13 19 24 25 31 46 51 53 55 57 61 79 80 81 87 89 92 93 101 112 121 122 125 129 132 139 144 146 149 153 160 163 166
b 41 12 13 19 24 25 31 46 51 53 55 57 61 66 79 80 87 89 92 93 101 112 121 122 125 129 132 139 144 146 149 153 160 163 166
b 42 12 13 19 24 25 31 51 53 55 57 61 66 79 80 87 89 92 93 101 112 121 122 125 129 132 139 144 146 149 153 157 160 163 166
b 43 12 13 19 24 25 31 37 51 53 55 57 61 66 79 80 87 92 93 101 112 121 122 125 129 132 139 144 146 149 153 157 160 163
b 44 4 15 24 26 35 36 40 45 46 49 55 62 69 76 80 81 88 89 90 91 94 96 100 109 111 125 126 132 134 136 140 148 150 158
b 45 1 2 3 4 9 10 14 16 17 18 21 26 27 32 35 36 40 45 46 48 49 54 60 62 63 64 67 68 69 71 72 74 76 78 79 80 81 88 89 90 91 93 94 95 96 99 100 106 107 108 109 110 111 115 119 120 125 126 132 134 136 137 140 141 142 150 151 153 154 156 158
b 46 1 2 3 4 6 9 10 14 16 17 18 21 26 27 32 35 36 40 45 46 48 49 52 54 60 62 63 64 67 68 69 71 72 74 76 78 80 81 88 89 90 91 93 94 95 96 99 100 106 107 109 110 111 115 119 120 125 126 132 134 136 137 140 141 142 150 151 153 154 156 158
b 47 1 2 3 4 6 9 10 14 16 17 18 21 26 27 32 35 40 45 48 49 52 54 60 62 63 64 67 68 69 71 72 74 76 78 81 88 91 93 94 95 96 99 100 106 107 109 110 111 115 119 120 126 131 132 134 136 137 140 141 142 150 151 153 154 156 158
b 48 1 2 3 4 6 8 9 10 14 16 17 18 21 26 27 32 35 40 45 48 49 52 54 60 62 63 64 67 68 69 71 72 74 76 78 81 88 91 93 94 95 96 99 100 106 107 109 110 111 115 119 120 126 131 134 136 137 140 141 142 150 151 153 154 156 158
b 49 1 2 3 4 6 8 9 10 14 17 21 26 27 32 33 35 40 45 48 49 52 54 60 62 63 64 68 69 71 72 76 78 81 84 88 91 93 94 95 96 99 100 106 109 110 111 115 119 120 126 131 134 136 137 140 141 142 150 151 153 154 156 158
b 50 1 2 3 4 6 8 10 14 17 21 26 27 32 33 35 40 45 48 49 52 54 60 62 63 64 68 69 71 72 76 78 84 88 91 93 94 95 96 99 100 106 109 110 111 115 119 120 126 131 134 136 137 140 141 142 150 151 152 153 154 156 158
b 51 1 2 3 4 6 8 10 14 17 21 26 27 32 33 35 40 45 48 49 52 54 60 62 63 64 68 69 71 72 76 78 84 88 91 93 94 95 96 100 106 109 110 111 115 119 120 126 131 133 136 137 140 141 142 150 151 152 153 154 156 158
b 52 1 2 3 4 6 8 10 14 17 21 26 27 32 33 40 48 49 52 54 59 60 62 63 64 68 69 71 72 76 78 84 88 91 93 94 95 96 100 106 109 111 115 119 120 126 131 133 136 137 140 141 142 150 151 152 153 154 156 158
b 53 1 2 3 4 6 8 10 14 17 21 26 27 30 32 33 40 48 49 52 54 59 60 62 63 64 68 69 71 72 76 78 84 88 91 94 95 100 106 109 111 115 119 120 126 131 133 136 137 140 141 142 150 151 152 154 156 158
b 54 1 2 3 4 6 8 10 14 17 21 26 27 30 32 33 40 48 49 52 54 60 62 63 64 68 69 71 72 76 78 84 88 91 94 95 100 105 106 109 111 115 119 120 126 131 133 136 137 140 141 142 150 151 152 154 156 158
b 55 1 2 3 4 8 10 14 17 26 27 30 32 33 38 40 41 48 49 54 60 62 63 64 68 69 71 72 76 78 84 88 91 94 95 100 105 106 109 111 115 119 120 126 131 133 136 137 140 141 142 150 151 152 154 156 158
b 56 1 2 3 4 8 10 14 17 20 26 27 32 33 38 40 41 48 49 54 60 62 63 64 68 69 71 72 76 78 84 88 91 94 95 100 105 106 109 111 115 119 120 126 131 133 136 137 140 141 142 150 151 152 154 156 158
b 57 1 2 3 4 8 10 14 17 20 26 27 32 33 38 40 41 48 49 54 60 62 63 64 68 69 71 72 76 78 83 84 88 91 94 95 100 106 109 111 115 119 120 126 131 133 136 140 141 142 150 151 152 154 156 158
b 58 1 2 3 4 8 10 14 17 20 26 27 32 33 38 40 41 48 49 54 60 62 63 64 68 69 71 72 76 78 83 84 88 91 94 95 100 106 109 111 115 119 120 126 131 133 136 140 141 142 150 151 152 155 156 158
b 59 2 3 4 8 10 14 17 20 26 27 32 33 38 40 41 48 49 54 60 62 63 64 68 69 71 72 76 78 83 84 88 91 94 95 100 109 111 117 119 120 126 131 133 136 140 141 142 150 151 152 155 156 158 161
b 60 2 3 4 8 10 14 17 20 26 27 32 33 34 38 40 41 48 49 54 60 62 63 64 68 69 71 72 76 83 84 88 91 94 95 100 109 111 117 119 120 126 131 133 136 140 141 142 150 151 152 155 156 158 161
b 61 2 3 8 14 17 20 26 32 33 34 38 41 48 49 54 68 72 77 83 84 91 94 111 117 120 126 128 131 133 141 150 151 152 155 158 161
b 62 2 3 7 8 14 17 20 26 32 33 34 41 48 49 54 68 72 77 83 84 91 94 111 117 120 126 128 131 133 141 150 151 152 155 158
b 63 4 6 8 21 26 27 32 52 54 59 62 63 69 76 84 88 91 93 94 95 96 100 111 119 120 126 127 131 133 136 140 142 150 151 152 153 158
b 64 4 6 21 26 32 52 54 59 62 69 76 88 91 94 96 100 103 111 120 126 127 130 136 140 150 151 158
b 65 4 6 21 26 52 59 62 69 73 76 82 88 91 94 96 100 103 111 126 127 130 136 140 147 158
b 66 4 6 21 26 44 52 59 62 69 73 76 82 88 91 94 96 100 103 111 126 127 136 140 147 158
1 3
2 4
2 3
4 38
5 6
5 45
6 7
7 8
8 9
8 44
9 10
10 11
11 12
12 13
13 14
14 15
15 16
16 17
17 18
18 19
19 20
20 21
21 22
22 23
23 24
24 25
25 26
26 27
27 28
28 29
29 30
30 31
31 32
32 33
32 39
33 34
34 35
35 36
36 37
37 38
39 40
40 41
41 42
42 43
45 46
46 47
47 48
48 49
49 50
50 51
51 52
52 53
52 63
53 54
54 55
55 56
56 57
57 58
58 59
59 60
60 61
61 62
63 64
64 65
65 66
